n_res = 4;
rc = [ 19, 25, 21, 20 ];
n_tasks = 30;
d = [ 3, 9, 3, 1, 9, 2, 7, 10, 10, 4, 5, 9, 2, 10, 6, 8, 8, 8, 4, 3, 5, 6, 10, 8, 1, 8, 6, 5, 7, 5 ];
rr = [| 9, 7, 7, 10, 7, 2, 2, 6, 7, 1, 3, 6, 4, 3, 6, 3, 6, 4, 2, 5, 6, 7, 4, 9, 2, 3, 8, 10, 6, 1
      | 2, 2, 1, 2, 1, 8, 5, 8, 7, 10, 6, 5, 4, 7, 2, 6, 4, 1, 10, 9, 2, 9, 4, 5, 5, 5, 10, 10, 7, 5
      | 4, 6, 6, 2, 7, 2, 1, 2, 4, 4, 3, 3, 6, 6, 1, 8, 2, 6, 6, 8, 5, 4, 4, 2, 10, 10, 1, 5, 4, 4
      | 2, 8, 9, 4, 6, 10, 5, 6, 7, 2, 1, 5, 10, 7, 8, 2, 4, 7, 6, 2, 6, 3, 5, 10, 3, 9, 5, 3, 6, 5 |];
suc = [ { 2 }, 
        { 3 }, 
        { 4 }, 
        { 5 }, 
        { 6 }, 
        { 7 }, 
        { 8 }, 
        { 9 }, 
        { 10 }, 
        { 11 }, 
        { 12 }, 
        { 13 }, 
        { 14 }, 
        { 15 }, 
        { 16 }, 
        { 17 }, 
        { 18 }, 
        { 19 }, 
        { 20 }, 
        { 21 }, 
        { 22 }, 
        { 23 }, 
        { 24 }, 
        { 25 }, 
        { 26 }, 
        { 27 }, 
        { 28 }, 
        { 29 }, 
        { 30 }, 
        {  }]; 
